/*********************************************
    * Lab01 - simple
    * Author: Coso
    * Creation Date: Mar, 2019
    *********************************************/
instance_name = "small_instance_08_simple";

d = 2;
r = 3;

SCj = [136 136];
Dk = [68 82 44];

Cjk = [[34 55 55]
 [37 70 54]];
